p cnf 10 50
9 -8 -5 0
2 3 -5 0
2 -5 -10 0
9 -4 -2 0
-10 8 2 0
2 5 8 0
2 -3 -1 0
9 4 7 0
-2 -8 6 0
4 -9 -10 0
-3 4 8 0
1 -3 -9 0
-6 1 9 0
-8 -3 -10 0
4 -2 6 0
-3 7 5 0
3 1 -2 0
10 -5 1 0
-8 -10 -4 0
-3 10 -5 0
2 6 5 0
8 -10 -1 0
9 7 -8 0
-9 -10 -2 0
-3 -6 -2 0
8 -6 -4 0
1 6 10 0
7 10 -1 0
-9 -7 4 0
-10 1 -6 0
-8 -6 -1 0
2 10 -9 0
10 -5 9 0
-8 10 1 0
-5 9 -3 0
1 -9 8 0
6 -2 -10 0
-5 8 -10 0
-6 -9 -8 0
5 -4 -8 0
-7 -2 -8 0
7 -10 9 0
1 2 10 0
1 -10 -8 0
-9 -3 -6 0
6 3 -4 0
9 2 -8 0
-2 9 -5 0
1 -5 6 0
8 5 10 0